100
100
3000 3000 3000 3000 3000 3000 3000 3000 3000 3000 3000 3000 3000 3000 3000 3000 3000 3000 3000 3000 3000 3000 3000 3000 3000 3000 3000 3000 3000 3000 3000 3000 3000 3000 3000 3000 3000 3000 3000 3000 3000 3000 3000 3000 3000 3000 3000 3000 3000 3000 3000 3000 3000 3000 3000 3000 3000 3000 3000 3000 3000 3000 3000 3000 3000 3000 3000 3000 3000 3000 3000 3000 3000 3000 3000 3000 3000 3000 3000 3000 3000 3000 3000 3000 3000 3000 3000 3000 3000 3000 3000 3000 3000 3000 3000 3000 3000 3000 3000 3000
0 12 2
0 13 1
0 22 0
0 27 1
0 32 3
0 67 4
0 73 2
0 76 0
0 79 3
0 82 1
1 0 4
1 10 0
1 24 3
1 25 4
1 39 3
1 43 1
1 50 0
1 59 3
1 64 4
1 75 3
2 21 4
2 27 1
2 32 2
2 38 0
2 40 2
2 41 2
2 53 1
2 60 3
2 80 3
2 81 2
3 8 4
3 15 4
3 37 1
3 40 1
3 44 0
3 53 3
3 63 1
3 65 3
3 71 0
3 75 4
4 7 3
4 30 1
4 42 0
4 49 4
4 67 1
4 71 0
4 79 4
4 95 1
4 97 3
4 99 1
5 1 0
5 3 4
5 14 0
5 24 0
5 33 2
5 50 0
5 56 0
5 68 1
5 69 0
5 74 0
6 15 0
6 46 2
6 57 1
6 64 4
6 74 3
6 78 2
6 87 1
6 89 0
6 91 0
6 94 3
7 15 1
7 21 1
7 52 0
7 64 2
7 76 1
7 77 0
7 78 1
7 85 0
7 87 4
7 90 0
8 0 3
8 12 4
8 14 3
8 21 0
8 61 0
8 65 0
8 72 1
8 73 1
8 95 4
8 97 1
9 5 2
9 8 1
9 22 0
9 25 1
9 26 0
9 48 0
9 50 1
9 69 2
9 74 2
9 77 4
10 20 0
10 24 3
10 34 2
10 43 2
10 59 2
10 60 0
10 70 4
10 88 0
10 93 1
10 94 4
11 1 3
11 8 1
11 13 1
11 28 3
11 47 3
11 62 2
11 65 4
11 66 0
11 69 0
11 82 4
12 4 0
12 10 0
12 14 0
12 19 0
12 22 0
12 45 2
12 51 4
12 56 1
12 64 1
12 71 1
13 1 4
13 9 2
13 25 2
13 29 3
13 30 4
13 35 1
13 38 2
13 48 2
13 61 0
13 78 3
14 10 4
14 14 4
14 39 4
14 53 4
14 69 0
14 70 0
14 75 3
14 82 3
14 86 0
14 89 3
15 8 2
15 11 2
15 13 2
15 20 3
15 26 3
15 30 2
15 39 3
15 45 3
15 47 2
15 50 4
16 0 3
16 16 2
16 19 2
16 28 4
16 29 2
16 41 1
16 42 1
16 52 3
16 65 0
16 70 1
17 4 0
17 17 4
17 23 0
17 35 2
17 50 0
17 70 0
17 79 4
17 80 2
17 83 3
17 94 4
18 11 4
18 26 4
18 27 2
18 31 2
18 37 1
18 49 1
18 61 0
18 66 1
18 77 1
18 79 2
19 9 4
19 35 4
19 62 2
19 76 2
19 84 1
19 90 1
19 93 1
19 95 1
19 97 3
19 98 0
20 19 3
20 25 1
20 38 3
20 41 2
20 69 0
20 70 4
20 71 1
20 73 3
20 87 4
20 89 0
21 16 1
21 32 0
21 52 3
21 55 4
21 69 4
21 71 4
21 75 4
21 83 3
21 90 4
21 95 4
22 5 4
22 9 2
22 21 1
22 23 1
22 30 0
22 66 4
22 74 2
22 80 4
22 89 2
22 91 0
23 13 2
23 15 2
23 30 2
23 35 0
23 47 3
23 67 0
23 77 4
23 78 4
23 84 0
23 87 2
24 4 0
24 7 3
24 27 3
24 32 4
24 51 3
24 52 3
24 55 0
24 62 4
24 70 2
24 86 0
25 16 3
25 37 4
25 41 2
25 59 3
25 74 2
25 81 3
25 82 0
25 88 2
25 93 1
25 96 2
26 8 1
26 16 0
26 19 1
26 47 2
26 66 3
26 73 2
26 92 1
26 93 1
26 95 4
26 96 1
27 15 2
27 40 0
27 43 3
27 46 4
27 59 3
27 79 3
27 86 2
27 90 2
27 94 1
27 96 0
28 2 3
28 8 2
28 13 4
28 18 3
28 23 0
28 29 0
28 71 0
28 84 0
28 94 2
28 95 4
29 6 4
29 19 2
29 23 2
29 31 3
29 34 2
29 44 1
29 49 1
29 64 3
29 68 3
29 82 0
30 6 0
30 16 2
30 19 2
30 20 3
30 27 1
30 34 3
30 37 4
30 44 0
30 50 3
30 54 3
31 4 3
31 5 4
31 6 1
31 21 3
31 22 4
31 34 1
31 42 4
31 65 4
31 72 0
31 91 0
32 45 2
32 46 0
32 55 3
32 56 0
32 57 3
32 78 4
32 91 4
32 92 1
32 96 3
32 99 0
33 3 2
33 21 1
33 26 4
33 28 3
33 32 3
33 36 2
33 42 1
33 43 2
33 56 0
33 58 3
34 1 4
34 23 2
34 24 1
34 38 3
34 56 0
34 61 1
34 80 1
34 87 4
34 90 4
34 99 3
35 3 3
35 15 2
35 20 2
35 22 2
35 32 3
35 36 2
35 45 4
35 52 4
35 57 2
35 85 3
36 3 2
36 6 3
36 17 1
36 21 3
36 33 4
36 39 0
36 53 1
36 72 3
36 73 4
36 89 4
37 0 1
37 10 4
37 16 0
37 29 4
37 34 4
37 39 4
37 44 2
37 52 0
37 54 3
37 57 3
38 13 2
38 27 2
38 28 0
38 31 0
38 41 3
38 60 4
38 65 2
38 76 3
38 78 3
38 91 1
39 5 0
39 18 1
39 30 0
39 31 4
39 49 0
39 50 2
39 62 4
39 64 1
39 71 4
39 84 2
40 9 4
40 23 1
40 24 2
40 42 0
40 54 2
40 55 1
40 87 1
40 88 1
40 92 4
40 98 2
41 6 2
41 25 2
41 30 0
41 36 4
41 39 4
41 51 2
41 66 3
41 75 3
41 85 4
41 86 4
42 17 1
42 31 2
42 45 1
42 54 1
42 58 1
42 60 0
42 70 0
42 71 0
42 84 0
42 88 0
43 1 0
43 24 1
43 33 3
43 36 0
43 40 0
43 52 3
43 63 2
43 68 4
43 74 0
43 79 0
44 4 0
44 12 3
44 52 4
44 54 4
44 58 0
44 62 1
44 74 0
44 80 3
44 84 2
44 91 1
45 9 4
45 10 1
45 26 2
45 27 3
45 40 0
45 41 1
45 56 1
45 73 3
45 83 4
45 85 4
46 2 0
46 4 1
46 11 1
46 28 3
46 37 3
46 46 3
46 47 2
46 60 3
46 66 1
46 69 2
47 0 3
47 6 4
47 28 2
47 36 2
47 37 2
47 49 4
47 53 4
47 63 1
47 76 0
47 82 2
48 9 0
48 13 3
48 17 3
48 20 4
48 24 1
48 42 1
48 46 3
48 49 0
48 77 0
48 83 0
49 23 4
49 38 4
49 55 3
49 68 3
49 74 4
49 95 2
49 96 1
49 97 3
49 98 2
49 99 0
50 1 1
50 6 2
50 11 1
50 23 1
50 31 0
50 45 1
50 46 2
50 51 0
50 53 4
50 66 3
51 3 0
51 5 3
51 14 3
51 29 1
51 40 4
51 43 4
51 44 0
51 48 0
51 53 4
51 58 0
52 2 3
52 4 2
52 7 1
52 11 2
52 14 4
52 17 4
52 29 2
52 30 0
52 40 4
52 59 1
53 5 4
53 11 0
53 18 2
53 22 2
53 23 4
53 32 0
53 45 0
53 63 1
53 68 0
53 73 0
54 5 0
54 28 0
54 45 3
54 52 1
54 54 2
54 59 4
54 67 4
54 79 3
54 80 2
54 93 3
55 15 2
55 19 4
55 28 1
55 41 0
55 43 1
55 47 2
55 48 2
55 49 1
55 55 4
55 67 1
56 10 4
56 14 0
56 18 4
56 25 0
56 26 0
56 33 0
56 41 0
56 66 4
56 75 4
56 83 0
57 1 2
57 7 0
57 19 0
57 24 4
57 42 4
57 45 3
57 46 2
57 49 2
57 55 3
57 58 1
58 21 1
58 37 0
58 44 2
58 51 2
58 60 1
58 67 2
58 69 2
58 92 2
58 97 3
58 99 1
59 3 4
59 5 3
59 30 0
59 46 3
59 58 0
59 60 2
59 61 1
59 65 1
59 72 4
59 76 2
60 10 3
60 24 1
60 25 1
60 82 0
60 87 1
60 91 4
60 96 2
60 97 0
60 98 3
60 99 1
61 36 4
61 38 2
61 40 4
61 47 1
61 77 2
61 81 4
61 86 2
61 89 4
61 95 0
61 97 2
62 7 2
62 8 1
62 11 0
62 12 1
62 23 4
62 25 3
62 34 4
62 38 2
62 40 2
62 63 2
63 4 0
63 39 2
63 46 4
63 47 4
63 48 4
63 55 0
63 94 0
63 97 4
63 98 1
63 99 4
64 22 1
64 34 0
64 35 0
64 43 1
64 47 1
64 55 4
64 59 0
64 61 3
64 79 3
64 81 2
65 31 2
65 36 4
65 51 3
65 57 1
65 60 1
65 78 1
65 83 2
65 86 1
65 88 2
65 92 2
66 43 0
66 52 3
66 58 1
66 61 2
66 62 3
66 63 1
66 76 4
66 81 2
66 85 1
66 88 4
67 9 0
67 19 1
67 21 1
67 26 2
67 70 4
67 75 3
67 77 3
67 88 2
67 91 1
67 94 3
68 4 1
68 7 0
68 9 4
68 12 4
68 22 0
68 31 4
68 49 3
68 64 0
68 65 1
68 86 3
69 2 4
69 6 2
69 22 0
69 27 3
69 53 1
69 66 2
69 77 3
69 80 1
69 83 1
69 86 1
70 1 0
70 2 2
70 6 4
70 15 1
70 18 2
70 19 0
70 33 0
70 35 4
70 43 0
70 58 0
71 3 4
71 11 4
71 35 3
71 48 4
71 57 0
71 81 4
71 87 0
71 88 1
71 90 0
71 91 2
72 17 0
72 26 0
72 29 3
72 38 4
72 44 0
72 51 3
72 54 1
72 77 0
72 78 3
72 99 1
73 12 1
73 13 2
73 29 4
73 40 0
73 47 1
73 48 1
73 50 4
73 60 0
73 61 3
73 64 2
74 0 3
74 14 1
74 16 1
74 20 0
74 48 3
74 51 1
74 60 1
74 69 3
74 70 0
74 79 4
75 0 2
75 10 1
75 34 3
75 38 2
75 39 2
75 64 4
75 73 2
75 91 1
75 95 0
75 96 3
76 2 1
76 16 4
76 20 2
76 49 0
76 59 0
76 62 2
76 67 0
76 73 4
76 96 0
76 98 4
77 27 1
77 33 4
77 41 0
77 53 2
77 54 4
77 68 3
77 78 3
77 84 0
77 92 2
77 98 2
78 1 3
78 18 1
78 31 3
78 35 4
78 45 3
78 50 2
78 54 4
78 62 1
78 76 4
78 82 0
79 13 2
79 16 1
79 17 4
79 18 2
79 20 3
79 28 3
79 46 1
79 51 1
79 71 3
79 74 2
80 24 3
80 41 0
80 59 2
80 64 4
80 65 1
80 72 4
80 92 2
80 93 3
80 94 3
80 97 3
81 7 4
81 12 2
81 30 4
81 32 2
81 33 4
81 36 4
81 38 0
81 72 0
81 81 4
81 82 2
82 44 3
82 50 2
82 57 4
82 59 3
82 62 0
82 68 3
82 74 0
82 84 4
82 89 0
82 93 2
83 0 2
83 10 0
83 16 2
83 37 4
83 42 0
83 53 2
83 56 4
83 68 1
83 80 3
83 85 3
84 2 4
84 17 3
84 21 3
84 43 4
84 44 1
84 51 0
84 54 1
84 55 3
84 92 1
84 98 3
85 17 3
85 25 4
85 36 3
85 48 1
85 56 2
85 61 3
85 63 4
85 68 2
85 71 1
85 85 1
86 0 3
86 9 1
86 11 1
86 12 3
86 20 3
86 29 1
86 63 1
86 69 0
86 90 0
86 92 0
87 8 4
87 10 3
87 13 4
87 15 1
87 27 0
87 33 2
87 63 1
87 65 2
87 67 4
87 78 3
88 1 1
88 6 1
88 20 1
88 36 4
88 44 2
88 72 0
88 73 1
88 80 3
88 83 1
88 87 1
89 2 1
89 18 1
89 34 0
89 58 2
89 72 0
89 75 4
89 81 2
89 84 2
89 86 0
89 90 2
90 32 4
90 72 1
90 88 2
90 89 3
90 90 0
90 94 2
90 96 4
90 97 3
90 98 3
90 99 4
91 2 3
91 7 0
91 29 0
91 57 3
91 58 0
91 82 0
91 83 3
91 86 1
91 89 4
91 96 4
92 8 4
92 18 1
92 25 4
92 32 3
92 33 3
92 37 0
92 56 0
92 63 0
92 68 0
92 88 2
93 3 1
93 5 1
93 28 2
93 35 1
93 39 0
93 57 0
93 67 3
93 70 0
93 89 2
93 93 3
94 3 4
94 7 2
94 9 4
94 12 0
94 15 1
94 22 4
94 33 3
94 39 3
94 62 3
94 81 2
95 14 0
95 17 3
95 18 4
95 35 4
95 75 0
95 76 0
95 85 4
95 90 1
95 92 3
95 93 4
96 5 3
96 8 1
96 11 3
96 14 1
96 42 4
96 61 0
96 79 3
96 85 3
96 93 3
96 98 2
97 2 3
97 7 2
97 12 1
97 26 1
97 34 2
97 57 1
97 85 1
97 94 4
97 95 1
97 99 3
98 3 3
98 4 3
98 31 1
98 37 4
98 56 2
98 66 1
98 67 1
98 77 2
98 80 3
98 87 0
99 0 1
99 26 4
99 42 4
99 48 3
99 72 3
99 75 0
99 76 4
99 81 3
99 83 0
99 84 0
